p wcnf 152 76 77 
1 103 -75 0 
1 -56 -152 0 
1 -124 -59 0 
1 -62 38 0 
1 -6 -58 0 
1 121 -99 0 
1 141 -140 0 
1 117 102 0 
1 75 52 0 
1 -85 4 0 
1 -39 -43 0 
1 94 -140 0 
1 84 -10 0 
1 32 -129 0 
1 -108 -40 0 
1 -22 -52 0 
1 54 -114 0 
1 63 -126 0 
1 2 12 0 
1 -1 -14 0 
1 27 99 0 
1 94 13 0 
1 -133 70 0 
1 -71 149 0 
1 -6 87 0 
1 37 -135 0 
1 -68 -23 0 
1 30 53 0 
1 70 124 0 
1 17 86 0 
1 -115 69 0 
1 95 -136 0 
1 -139 -18 0 
1 -21 23 0 
1 -69 139 0 
1 96 -74 0 
1 -78 29 0 
1 -70 110 0 
1 71 -69 0 
1 -86 2 0 
1 -99 -15 0 
1 65 -108 0 
1 -74 1 0 
1 30 8 0 
1 -54 89 0 
1 1 27 0 
1 -67 149 0 
1 116 27 0 
1 -92 85 0 
1 -142 -68 0 
1 96 56 0 
1 -119 47 0 
1 -38 98 0 
1 -150 -77 0 
1 -42 99 0 
1 -124 -129 0 
1 -80 -147 0 
1 -34 101 0 
1 -4 64 0 
1 -17 91 0 
1 -112 105 0 
1 -65 -48 0 
1 96 -147 0 
1 -115 67 0 
1 104 -6 0 
1 109 -26 0 
1 -101 -13 0 
1 -116 -65 0 
1 124 -45 0 
1 -66 64 0 
1 145 -11 0 
1 35 -7 0 
1 -116 -52 0 
1 -42 -78 0 
1 24 149 0 
1 21 -47 0 
